words_hard_train/6512.qaiger
aag 61 17 0 1 44
2
4
8
12
18
24
28
32
38
50
62
66
74
84
88
94
112
123
6 2 4
10 8 4
14 11 13
16 15 4
20 17 19
22 21 4
26 23 25
30 26 29
34 30 33
36 6 34
40 36 39
42 35 4
44 43 38
46 42 39
48 45 47
52 49 50
54 31 4
56 55 32
58 54 33
60 57 59
64 61 62
68 27 66
70 22 24
72 68 71
76 21 74
78 16 18
80 76 79
82 73 81
86 84 8
90 87 88
92 10 12
96 93 94
98 96 15
100 90 99
102 82 100
104 27 4
106 105 29
108 104 28
110 107 109
114 110 112
116 102 115
118 65 116
120 53 118
122 41 121
i0 2 y2[7]
i1 1 x2[7]
i2 1 x2[0]
i3 1 x2[1]
i4 1 x2[2]
i5 1 x2[3]
i6 1 x2[4]
i7 1 x2[5]
i8 1 x2[6]
i9 2 y2[6]
i10 2 y2[5]
i11 2 y2[3]
i12 2 y2[2]
i13 2 y2[0]
i14 2 y1[0]
i15 2 y2[1]
i16 2 y2[4]
o0 bv[0]
c
simplified
  >
    and
      1
      2 y1
    and
      abs
        1 x2
      2 y2
