words_hard_train/6512.qaiger.qdimacs
p cnf 61 133
a 2 4 6 9 12 14 16 19 0
e 1 3 5 7 8 10 11 13 15 17 18 20 21 22 23 24 25 26 27 28 29 30 31 32 33 34 35 36 37 38 39 40 41 42 43 44 45 46 47 48 49 50 51 52 53 54 55 56 57 58 59 60 61 0
-1 -2 3 0
1 -3 0
2 -3 0
-4 -2 5 0
4 -5 0
2 -5 0
5 6 7 0
-5 -7 0
-6 -7 0
7 -2 8 0
-7 -8 0
2 -8 0
8 9 10 0
-8 -10 0
-9 -10 0
10 -2 11 0
-10 -11 0
2 -11 0
11 12 13 0
-11 -13 0
-12 -13 0
-13 14 15 0
13 -15 0
-14 -15 0
-15 16 17 0
15 -17 0
-16 -17 0
-3 -17 18 0
3 -18 0
17 -18 0
-18 19 20 0
18 -20 0
-19 -20 0
17 -2 21 0
-17 -21 0
2 -21 0
21 -19 22 0
-21 -22 0
19 -22 0
-21 19 23 0
21 -23 0
-19 -23 0
22 23 24 0
-22 -24 0
-23 -24 0
24 -25 26 0
-24 -26 0
25 -26 0
15 -2 27 0
-15 -27 0
2 -27 0
27 -16 28 0
-27 -28 0
16 -28 0
-27 16 29 0
27 -29 0
-16 -29 0
28 29 30 0
-28 -30 0
-29 -30 0
30 -31 32 0
-30 -32 0
31 -32 0
13 -33 34 0
-13 -34 0
33 -34 0
-11 -12 35 0
11 -35 0
12 -35 0
-34 35 36 0
34 -36 0
-35 -36 0
10 -37 38 0
-10 -38 0
37 -38 0
-8 -9 39 0
8 -39 0
9 -39 0
-38 39 40 0
38 -40 0
-39 -40 0
36 40 41 0
-36 -41 0
-40 -41 0
-42 -4 43 0
42 -43 0
4 -43 0
43 -44 45 0
-43 -45 0
44 -45 0
-5 -6 46 0
5 -46 0
6 -46 0
46 -47 48 0
-46 -48 0
47 -48 0
-48 7 49 0
48 -49 0
-7 -49 0
-45 49 50 0
45 -50 0
-49 -50 0
-41 -50 51 0
41 -51 0
50 -51 0
13 -2 52 0
-13 -52 0
2 -52 0
52 14 53 0
-52 -53 0
-14 -53 0
-52 -14 54 0
52 -54 0
14 -54 0
53 54 55 0
-53 -55 0
-54 -55 0
-55 -56 57 0
55 -57 0
56 -57 0
-51 57 58 0
51 -58 0
-57 -58 0
32 -58 59 0
-32 -59 0
58 -59 0
26 -59 60 0
-26 -60 0
59 -60 0
20 60 61 0
-20 -61 0
-60 -61 0
-61 0
